15 40
25
2 11 0 0
3 2 2 9
7 10 8 18
4 8 11 10
5 9 2 0
2 7 4 15
1 4 4 11
1 6 5 9
5 4 6 9
3 8 4 32
3 1 8 28
5 5 6 13
1 3 6 29
4 12 11 28
2 6 9 0
4 2 11 8
4 11 7 29
2 10 4 22
2 3 2 37
2 11 6 18
4 3 7 6
4 26 0 11
4 8 11 0
2 3 0 37
2 6 7 0
